8 8 1 1 111111
15 2 8 2 2 3 2 8 5 5 7 2 3 3 7 3 3 8 3 2 4 3 5 3 2 3 5 7 7 1 2 1 6 6 4 3 8 3 1 1 3 1 2 1 1 7 7 2 8 5 2 6 3 8 1 5 6 7 3 2 1 6 5 3 2 8 5 7 7 2 2 5 3 5 2 1 1 7 1 3 8 6 1 3 6 1 
15 2 1 6 4 1 3 8 5 5 2 6 3 2 1 2 6 6 2 8 3 7 6 2 2 1 5 3 2 3 4 7 3 3 8 6 1 7 6 4 2 4 5 5 1 2 1 1 5 1 2 2 1 3 5 2 8 7 2 7 3 1 3 4 1 6 2 2 8 2 7 7 2 2 4 5 6 3 8 6 1 2 7 3 
15 2 3 1 7 7 2 5 1 7 5 2 8 5 7 7 2 3 7 7 5 2 8 1 3 3 2 4 5 5 2 2 8 5 1 5 2 1 1 4 5 2 3 4 6 2 2 8 1 5 4 3 2 1 3 2 5 2 2 6 5 7 3 2 4 3 7 7 2 8 6 3 5 2 8 4 6 7 
15 2 8 6 4 4 2 1 5 2 2 2 2 4 7 4 2 8 4 7 4 3 3 4 4 2 7 1 2 8 4 7 3 2 5 3 6 2 2 3 2 5 1 2 4 1 5 4 3 1 2 2 6 7 4 2 8 3 4 7 2 2 6 7 2 2 4 5 7 2 2 8 6 3 6 2 1 7 5 7 
15 2 8 3 4 6 3 2 3 3 1 5 7 2 1 2 2 7 2 1 2 6 4 2 5 2 6 7 2 3 6 4 7 2 3 6 4 7 2 3 2 4 1 2 8 3 1 6 2 2 4 3 2 2 1 7 4 6 2 1 1 5 5 3 8 3 6 1 7 1 2 8 3 1 7 2 2 6 5 6 
15 2 1 1 3 2 2 4 4 5 7 2 1 1 5 7 2 3 6 6 5 2 4 3 6 1 2 6 7 7 3 2 6 2 7 1 2 2 4 6 4 2 8 6 4 4 3 3 2 6 2 7 3 3 1 3 3 3 6 7 2 4 6 6 5 2 2 2 5 3 2 1 3 6 2 2 3 6 7 6 
15 3 8 5 1 7 5 5 2 5 5 6 6 2 2 6 5 6 3 1 3 3 4 4 1 3 1 4 6 3 7 3 2 4 6 6 5 2 8 2 6 2 2 1 1 4 1 2 3 1 4 5 2 1 3 2 4 2 8 1 2 3 2 8 3 2 4 2 8 2 6 5 2 5 5 6 6 2 8 4 7 7 
15 3 3 3 4 6 6 1 2 5 7 6 3 2 3 7 6 4 2 4 3 5 4 3 2 5 4 6 5 2 2 2 3 7 5 2 4 1 6 5 2 5 2 6 4 2 1 4 4 5 2 8 7 3 3 2 1 6 4 3 2 2 2 4 3 2 8 1 1 4 3 1 7 3 5 5 3 3 8 6 3 6 4 3 
0 3 3 4 5 
0 3 3 4 5 
0 3 3 4 5 
3 1 0 2 2 6 7 
3 2 0 1 2 6 7 
3 1 0 2 2 6 8 
3 4 3 5 3 9 10 11 
2 3 4 3 9 10 11 
1 5 3 9 10 11 
3 8 7 6 3 12 13 14 
3 6 8 7 2 12 14 
3 6 7 8 2 12 13 
3 10 11 9 0 
2 9 11 0 
2 9 10 0 
0 3 17 18 20 
0 3 17 18 20 
2 16 15 3 19 21 23 
2 16 15 3 19 21 23 
2 18 17 2 24 25 
2 15 16 3 21 23 25 
3 18 20 17 3 24 28 29 
0 3 24 25 27 
3 18 17 20 3 26 27 28 
3 19 22 21 1 26 
3 20 19 22 3 26 28 29 
3 24 25 23 0 
2 22 23 1 29 
3 21 25 23 0 
3 27 25 21 0 
0 1 31 
1 30 2 32 33 
1 31 3 34 35 39 
1 31 3 34 35 39 
2 32 33 3 36 37 38 
2 33 32 3 36 37 38 
2 34 35 3 40 41 44 
2 35 34 3 40 41 44 
2 34 35 2 40 42 
2 33 32 2 41 44 
3 38 36 37 1 43 
3 36 37 39 2 42 43 
2 41 38 0 
2 41 40 0 
3 39 37 36 0 
0 2 46 48 
1 45 3 47 49 55 
1 46 3 50 51 52 
1 45 2 49 55 
2 46 48 3 50 51 52 
2 49 47 2 53 57 
2 49 47 2 53 59 
2 47 49 3 53 57 59 
3 52 51 50 1 56 
0 2 55 56 
3 46 48 54 3 57 59 58 
2 53 54 0 
3 52 55 50 0 
1 55 0 
3 52 55 51 0 
0 3 62 64 66 
0 3 62 64 66 
2 60 61 3 63 68 71 
1 62 3 67 70 74 
2 60 61 3 67 68 71 
0 2 66 68 
3 61 60 65 3 67 70 71 
3 63 66 64 2 72 73 
3 65 64 62 3 69 70 74 
1 68 0 
3 68 66 63 2 72 73 
3 66 64 62 3 72 73 74 
3 67 70 71 0 
3 67 70 71 0 
3 68 63 71 0 
0 2 76 78 
1 75 3 79 80 86 
0 3 78 79 80 
2 75 77 3 81 82 83 
2 76 77 3 81 82 83 
2 76 77 3 81 82 83 
3 80 79 78 1 85 
3 80 79 78 1 87 
3 80 78 79 2 85 87 
0 2 85 86 
3 83 81 84 1 88 
2 76 84 1 87 
3 86 82 83 1 88 
2 85 87 1 89 
1 88 0 
0 3 91 94 98 
1 90 3 92 93 101 
1 91 3 96 97 99 
1 91 3 96 97 99 
1 90 3 96 97 101 
0 2 98 101 
3 93 92 94 3 100 103 104 
3 94 93 92 3 100 102 103 
2 90 95 1 99 
3 92 93 98 3 100 102 103 
3 96 97 99 0 
3 95 91 94 1 102 
3 99 97 101 1 104 
3 97 99 96 0 
2 102 96 0 
0 3 106 107 112 
1 105 3 108 109 111 
1 105 3 108 109 111 
2 107 106 3 110 113 115 
2 106 107 3 110 113 116 
2 109 108 3 114 117 118 
2 107 106 3 113 114 115 
1 105 2 114 115 
3 109 111 108 3 117 118 119 
3 111 110 112 1 119 
3 108 112 111 1 116 
2 109 115 3 117 118 119 
3 116 110 113 0 
3 116 110 113 0 
3 116 113 114 0 
